61 78 
61 43 
77 62 
59 70 
15 44 
27 95 
45 19 
9 74 
32 46 
89 21 
8 4 
86 43 
8 38 
47 45 
76 84 
47 37 
15 60 
32 92 
22 91 
14 37 
35 93 
85 32 
13 94 
6 97 
92 95 
18 0 
51 57 
43 11 
95 42 
57 71 
27 56 
60 94 
17 92 
38 39 
83 5 
29 70 
98 66 
3 63 
60 61 
13 4 
9 83 
5 12 
40 0 
24 87 
43 33 
10 22 
89 22 
68 58 
14 6 
50 49 
